GeO2 rutile PND, A.A. Bolzan et al., Act
   1.00000000000000     
     4.4065599441999996    0.0000000000000000    0.0000000000000000
     0.0000000000000000    4.4065599441999996    0.0000000000000000
     0.0000000000000000    0.0000000000000000    2.8618600368000000
   Ge   O 
     2     4
Direct
  0.0000000000000000 -0.0000000000000000 -0.0000000000000000
  0.5000000000000000  0.5000000000000000  0.5000000000000000
  0.3046347923692114  0.3046347923692114  0.0000000000000000
  0.6953652076307886  0.6953652076307886 -0.0000000000000000
  0.1953652076307886  0.8046347923692114  0.5000000000000000
  0.8046347923692114  0.1953652076307886  0.5000000000000000
 
  0.00000000E+00  0.00000000E+00  0.00000000E+00
  0.00000000E+00  0.00000000E+00  0.00000000E+00
  0.00000000E+00  0.00000000E+00  0.00000000E+00
  0.00000000E+00  0.00000000E+00  0.00000000E+00
  0.00000000E+00  0.00000000E+00  0.00000000E+00
  0.00000000E+00  0.00000000E+00  0.00000000E+00
